; benchmark generated from python API
(set-info :status unknown)
(declare-fun L_3 () Real)
(declare-fun A_4 () Real)
(declare-fun S_4 () Real)
(declare-fun S_0 () Real)
(declare-fun L_0 () Real)
(declare-fun A_0 () Real)
(declare-fun A_3 () Real)
(declare-fun S_3 () Real)
(declare-fun S_2 () Real)
(declare-fun S_1 () Real)
(declare-fun A_1 () Real)
(declare-fun L_1 () Real)
(declare-fun L_2 () Real)
(declare-fun A_2 () Real)
(assert
 (let (($x34 (>= L_0 0.0)))
 (let (($x7614 (<= (+ S_4 (* (- (/ 1.0 2.0)) S_3) (* (- 1.0) A_3) L_3 (* (/ 1.0 2.0) S_0)) 0.0)))
 (let ((?x1372 (* 2.0 L_3)))
 (let ((?x1492 (* (- 2.0) S_1)))
 (let ((?x1399 (* 2.0 S_2)))
 (let ((?x1294 (* (- 2.0) A_3)))
 (let ((?x972 (* 2.0 A_1)))
 (let ((?x1012 (* (- 2.0) L_1)))
 (let (($x71 (= L_3 L_2)))
 (let ((?x1062 (* (- 1.0) S_0)))
 (let ((?x368 (* (- 1.0) A_3)))
 (let ((?x238 (* (- 1.0) L_1)))
 (let ((?x1883 (* 4.0 L_3)))
 (let ((?x1956 (* (- 4.0) A_3)))
 (let ((?x1947 (* 4.0 A_1)))
 (let ((?x1862 (* (- 4.0) L_1)))
 (let ((?x1146 (* 2.0 S_4)))
 (let (($x2873 (<= (+ (* (- 1.0) S_4) A_3 (* (- 1.0) L_3)) 0.0)))
 (let (($x24760 (or (<= (+ (* (- 2.0) S_4) (* 3.0 S_2) (* (- 1.0) S_1)) 0.0) $x2873)))
 (let ((?x337 (* (- 1.0) S_1)))
 (let ((?x1053 (* (- 2.0) L_2)))
 (let ((?x1052 (* 2.0 A_2)))
 (let ((?x363 (* (- 1.0) A_1)))
 (let ((?x350 (* (- 1.0) S_3)))
 (let ((?x255 (* (- 1.0) L_2)))
 (let (($x51 (= L_1 L_0)))
 (let (($x2569 (<= (+ (* (- 2.0) A_2) (* 2.0 L_2) ?x1012 ?x972 S_1 ?x1062) 0.0)))
 (let (($x61 (= L_2 L_1)))
 (let ((?x8209 (* (/ 5.0 2.0) L_3)))
 (let ((?x8019 (* (- (/ 5.0 2.0)) A_3)))
 (let ((?x8318 (* (/ 5.0 2.0) A_1)))
 (let ((?x8024 (* (- (/ 5.0 2.0)) L_1)))
 (let (($x3323 (<= (+ (* (- (/ 1.0 2.0)) S_4) (* (- 1.0) A_0) L_0 (* (/ 3.0 2.0) S_1)) 0.0)))
 (let (($x3133 (<= (+ (* (- 2.0) S_4) (* (- 1.0) A_0) L_0 (* 3.0 S_2)) 0.0)))
 (let ((?x357 (* (- 1.0) S_4)))
 (let ((?x1948 (+ ?x357 (* (/ 3.0 2.0) L_1) (* (- (/ 3.0 2.0)) A_1) (* (/ 3.0 2.0) A_3) S_0 (* (- (/ 3.0 2.0)) L_3))))
 (let ((?x1318 (* (- 2.0) L_3)))
 (let ((?x1423 (* 2.0 S_0)))
 (let ((?x1251 (* 2.0 A_3)))
 (let ((?x1055 (* (- 2.0) A_1)))
 (let ((?x1054 (* 2.0 L_1)))
 (let ((?x1421 (* (- 2.0) S_3)))
 (let (($x2618 (<= (+ (* (- 1.0) A_2) L_2 (* (- 1.0) A_0) L_0 ?x238 A_1 S_1) 0.0)))
 (let ((?x1202 (* 2.0 S_1)))
 (let ((?x1573 (* 2.0 L_0)))
 (let ((?x1572 (* (- 2.0) A_0)))
 (let (($x25231 (or $x71 (<= (+ A_2 ?x255 (* (- 1.0) A_0) L_0 ?x368 S_1 L_3) 0.0))))
 (let ((?x2326 (* 5.0 L_3)))
 (let ((?x2307 (* (- 5.0) A_3)))
 (let ((?x2310 (* (- 5.0) L_2)))
 (let ((?x2315 (* 5.0 A_2)))
 (let ((?x1524 (* 5.0 A_1)))
 (let ((?x1770 (* (- 5.0) L_1)))
 (let ((?x1536 (* 5.0 L_2)))
 (let ((?x1550 (* (- 5.0) A_2)))
 (let ((?x1371 (* 3.0 L_3)))
 (let ((?x1354 (* (- 3.0) A_3)))
 (let ((?x1061 (* 3.0 A_1)))
 (let ((?x1060 (* (- 3.0) L_1)))
 (let ((?x1670 (* 2.0 S_3)))
 (let ((?x1084 (* (- 1.0) A_0)))
 (let ((?x1599 (* (- 4.0) L_2)))
 (let ((?x1302 (* 4.0 A_2)))
 (let (($x24752 (or $x71 (<= (+ S_3 ?x238 A_1 ?x368 (* (- 1.0) S_2) L_3) 0.0))))
 (let ((?x1838 (* (/ 3.0 2.0) L_3)))
 (let ((?x343 (* (- 1.0) S_2)))
 (let ((?x1837 (* (- (/ 3.0 2.0)) A_3)))
 (let ((?x1836 (* (/ 3.0 2.0) A_1)))
 (let ((?x1834 (* (- (/ 3.0 2.0)) L_1)))
 (let (($x6916 (<= (+ (* (- 1.0) A_2) L_2 A_3 ?x343 S_0 (* (- 1.0) L_3)) 0.0)))
 (let (($x8454 (<= (+ (* (- 2.0) A_2) (* 2.0 L_2) ?x350 ?x1251 S_0 ?x1318) 0.0)))
 (let (($x4859 (<= (+ (* (- 1.0) A_2) L_2 ?x350 A_3 S_1 (* (- 1.0) L_3)) 0.0)))
 (let (($x2346 (<= (+ (* 3.0 A_2) (* (- 3.0) L_2) S_4 ?x1354 ?x343 ?x1371) 0.0)))
 (let (($x1634 (<= (+ (* (- 4.0) A_2) (* 4.0 L_2) S_4 ?x1862 ?x1947 ?x337) 0.0)))
 (let (($x15821 (not (<= 0.0 (+ L_2 (* (- 1.0) L_3))))))
 (let (($x2126 (<= (+ (* (- 3.0) A_2) (* 3.0 L_2) S_4 ?x1060 ?x1061 ?x343) 0.0)))
 (let (($x2003 (<= (+ (* (- 2.0) A_2) (* 2.0 L_2) S_4 ?x350 ?x1012 ?x972) 0.0)))
 (let (($x1987 (<= (+ (* (- 4.0) A_2) (* 4.0 L_2) S_4 ?x1084 L_0 ?x1862 ?x1947) 0.0)))
 (let (($x1316 (not $x61)))
 (let (($x24672 (or $x51 $x1316 (<= (+ A_2 (* (- (/ 1.0 2.0)) S_3) ?x363 (* (/ 1.0 2.0) S_0)) 0.0))))
 (let ((?x1531 (* (- (/ 1.0 2.0)) L_3)))
 (let ((?x1793 (* (/ 1.0 2.0) A_3)))
 (let ((?x1547 (* (- (/ 1.0 2.0)) A_1)))
 (let ((?x1807 (* (/ 1.0 2.0) L_1)))
 (let (($x25476 (or $x51 (<= (+ ?x1421 L_1 ?x363 A_3 ?x1202 (* (- 1.0) L_3)) 0.0))))
 (let (($x25447 (or $x51 (<= (+ ?x357 L_1 ?x363 A_3 S_1 (* (- 1.0) L_3)) 0.0))))
 (let ((?x272 (* (- 1.0) L_3)))
 (let ((?x213 (* (- 1.0) L_0)))
 (let ((?x976 (* 2.0 L_2)))
 (let ((?x1018 (* (- 2.0) A_2)))
 (let (($x492 (not (<= 0.0 (+ L_0 ?x238)))))
 (let (($x1373 (<= (+ (* 3.0 A_2) (* (- 3.0) L_2) ?x1354 S_2 ?x1062 ?x1371) 0.0)))
 (let (($x1064 (<= (+ (* (- 3.0) A_2) (* 3.0 L_2) ?x1060 ?x1061 S_2 ?x1062) 0.0)))
 (let (($x108 (>= S_1 S_0)))
 (let (($x111 (>= S_2 S_1)))
 (let (($x114 (>= S_3 S_2)))
 (let (($x120 (>= A_2 A_1)))
 (let (($x121 (>= A_3 A_2)))
 (let (($x122 (>= A_4 A_3)))
 (and (<= (+ A_2 ?x255) S_4) (<= (+ A_0 ?x213) S_3) (not (<= (+ A_1 ?x238) S_3)) $x122 $x121 $x120 $x114 $x111 $x108 (or $x51 $x492) (or $x61 (<= (+ (* (- 1.0) A_2) L_2 ?x238 A_1) (- 5.0))) (or $x61 (<= (+ ?x1018 ?x976 ?x1012 ?x972 S_2 ?x337) 0.0)) (or $x61 $x1064) (or $x61 (<= (+ ?x1018 ?x976 ?x1084 L_0 ?x1012 ?x972 S_2) 0.0)) (or (not (<= 0.0 (+ ?x255 L_1))) $x61) (or $x71 (<= (+ ?x238 A_1 ?x368 L_3) (- 10.0))) (or $x71 $x15821) (or $x71 $x1373) (or $x71 (<= (+ ?x1052 ?x1053 ?x1084 L_0 ?x1294 S_2 ?x1372) 0.0)) (or $x71 (<= (+ A_2 ?x255 ?x368 L_3) (- 5.0))) (or $x51 $x61 $x71 (= (+ ?x1052 ?x1053 L_1 ?x363 ?x368 L_3) 0.0)) (or $x61 $x492 (<= (+ ?x1018 ?x976 ?x213 A_1 A_3 ?x272) 0.0)) (or $x71 (not (= (+ ?x1052 ?x1053 L_1 ?x363 ?x368 L_3) 0.0)) $x2126) $x25447 (<= (+ ?x350 S_1) (- 5.0)) $x25476 (or $x51 (<= (+ ?x1807 ?x1547 ?x1793 ?x343 S_0 ?x1531) 0.0)) (<= (+ ?x343 S_0) (- 5.0)) (<= (+ ?x350 S_0) (- 10.0)) (or $x71 (<= (+ ?x1834 ?x1836 ?x1837 S_2 ?x1062 ?x1838) 0.0)) (or $x51 (<= (+ ?x357 ?x1807 ?x1547 ?x1793 S_2 ?x1531) 0.0)) $x24672 (or $x61 $x1987) (or $x51 (<= (+ ?x1052 ?x1053 ?x350 ?x1054 ?x1055 S_0) 0.0)) (or $x61 $x2003) (or $x61 $x2126) (or $x2873 (<= (+ ?x357 S_2) (- 5.0))) (<= (+ S_3 (* (- 3.0) S_2) ?x1423) 0.0) (or $x61 $x15821 (<= 0.0 (+ ?x1052 ?x255 L_1 ?x363 ?x368))) (or $x61 $x1634) (or $x51 $x71 $x1316 (<= (+ ?x1052 ?x238 ?x363 ?x368 L_3) 0.0)) (or $x51 (<= (+ A_2 ?x255 L_1 ?x363 ?x343 S_0) 0.0)) (or $x71 $x2346) (<= (+ (* (/ 1.0 4.0) S_4) ?x343 (* (/ 3.0 4.0) S_0)) 0.0) (or $x71 (<= (+ ?x1052 ?x1053 S_4 ?x350 ?x1294 ?x1372) 0.0)) (or $x61 $x4859) (or $x61 $x8454) (or $x61 $x6916) (or $x71 (<= (+ S_4 ?x1834 ?x1836 ?x1837 ?x343 ?x1838) 0.0)) (or $x71 (<= (+ ?x1572 ?x1573 ?x1012 ?x972 ?x1294 ?x1399 ?x1372) 0.0)) (or $x71 (<= (+ ?x1146 ?x1572 ?x1573 ?x1862 ?x1947 ?x1956 ?x1883) 0.0)) (or $x71 (<= (+ ?x1146 ?x1421 ?x1012 ?x972 ?x1294 ?x1372) 0.0)) (<= (+ ?x1084 ?x350 L_0 ?x1202) 0.0) (or $x2873 (<= (+ (* (- (/ 1.0 2.0)) S_4) (* (/ 1.0 2.0) S_1)) (- 5.0))) (or $x71 (<= (+ ?x1670 ?x1060 ?x1061 ?x1354 ?x1492 ?x1371) 0.0)) $x24752 (or $x71 (<= (+ ?x1302 ?x1599 S_4 ?x1956 ?x337 ?x1883) 0.0)) (or $x71 (<= (+ ?x1302 ?x1599 S_4 ?x1084 L_0 ?x1956 ?x1883) 0.0)) (or $x71 (<= (+ ?x1572 ?x1670 ?x1573 ?x1060 ?x1061 ?x1354 ?x1371) 0.0)) (or $x61 (<= (+ ?x1550 ?x1536 S_4 ?x1770 ?x1524 ?x1062) 0.0)) (or $x71 (<= (+ ?x2315 ?x2310 S_4 ?x2307 ?x1062 ?x2326) 0.0)) $x25231 (or $x71 (<= (+ ?x1572 ?x1573 ?x238 A_1 ?x368 ?x1202 L_3) 0.0)) (or $x61 $x2618) (<= (+ ?x350 (* (/ 3.0 2.0) S_1) (* (- (/ 1.0 2.0)) S_0)) 0.0) (or $x2873 (<= (+ ?x357 ?x1202 ?x1062) 0.0)) (<= (+ (* (/ 1.0 3.0) S_4) ?x350 (* (/ 2.0 3.0) S_1)) 0.0) (or $x2873 (<= (+ (* (- 3.0) S_4) (* 4.0 S_2) ?x1062) 0.0)) (<= (+ S_4 ?x1421 S_0) 0.0) (or $x51 (<= (+ ?x1421 ?x1054 ?x1055 ?x1251 ?x1423 ?x1318) 0.0)) (or $x71 (<= (+ ?x1052 ?x1053 ?x1294 S_1 ?x1062 ?x1372) 0.0)) (or $x2873 (<= (+ ?x357 S_0) (- 15.0))) (or $x71 (<= (+ S_3 ?x1012 ?x972 ?x1294 ?x1062 ?x1372) 0.0)) (or $x51 (<= ?x1948 0.0)) (or $x2873 $x3133) (or $x2873 $x3323) (or $x71 (<= (+ S_4 ?x8024 ?x8318 ?x8019 ?x1062 ?x8209) 0.0)) (or $x61 $x2569) (or $x51 (<= (+ A_2 ?x255 ?x350 L_1 ?x363 S_1) 0.0)) (or $x71 (<= (+ ?x1052 ?x1053 ?x1294 S_2 ?x337 ?x1372) 0.0)) $x24760 (<= (+ S_4 ?x350 ?x368 L_3 S_1) 0.0) (or $x71 (<= (+ ?x1146 ?x1862 ?x1947 ?x1956 ?x1492 ?x1883) 0.0)) (or $x71 (<= (+ ?x238 A_1 ?x368 S_1 ?x1062 L_3) 0.0)) (or $x71 (<= (+ ?x1012 ?x972 ?x1294 ?x1399 ?x1492 ?x1372) 0.0)) (<= (+ S_4 ?x368 L_3 ?x343 S_0) 0.0) $x7614 $x34 (<= (+ ?x1572 ?x1573 ?x1423) 0.0) (<= (+ S_4 (* (- 1.0) A_4) L_3) 0.0))))))))))))))))))))))))))))))))))))))))))))))))))))))))))))))))))))))))))))))))))))))))))))))))))))))
(check-sat)
